%%%% Min and max were calculated using the average of the ten processes generated by hand (CMMN Models.xlsx tab models).
%%%% Min is Average - 1 standard deviation (forced to zero if negative)
%%%% Max is Average + 1 standard deviation
%% Weights            Min                Max                 % (Weight, Min, Max) Description"      
weight_CS_SC    = 1 ; min_CS_SC    = 1 ; max_CS_SC    = 4  ; % (1,1,5)  case plan model element
weight_CS_SS    = 1 ; min_CS_SS    = 1 ; max_CS_SS    = 7  ; % (1,0,15) stage element
weight_CS_SDS   = 2 ; min_CS_SDS   = 1 ; max_CS_SDS   = 7  ; % (2,0,10) discretionary stage element
weight_CS_SPF   = 3 ; min_CS_SPF   = 0 ; max_CS_SPF   = 1  ; % (3,0,1)  plan fragment element
weight_CS_DI    = 1 ; min_CS_DI    = 1 ; max_CS_DI    = 7  ; % (1,0,15) case file item element
weight_CS_PT    = 1 ; min_CS_PT    = 2 ; max_CS_PT    = 12 ; % (1,0,30) task element
weight_CS_PDT   = 2 ; min_CS_PDT   = 1 ; max_CS_PDT   = 15 ; % (2,0,25) discretionary task element
weight_PE       = 2 ; min_PE       = 0 ; max_PE       = 0  ; % (2,0,1)  event listener element
weight_PE2MHB   = 2 ; min_PE2MHB   = 0 ; max_PE2MHB   = 4  ; % (2,0,5)  user event listener element
weight_PE2MT    = 2 ; min_PE2MT    = 0 ; max_PE2MT    = 4  ; % (2,0,5)  timer event listener element
weight_CS_PM    = 1 ; min_CS_PM    = 2 ; max_CS_PM    = 8  ; % (1,0,15) milestone element
weight_DCP_S    = 1 ; min_DCP_S    = 0 ; max_DCP_S    = 2  ; % (1,0,5)  stage collapsed planning table
weight_DEP_S    = 2 ; min_DEP_S    = 0 ; max_DEP_S    = 4  ; % (2,0,5)  stage expanded planning table
weight_DCP_H    = 1 ; min_DCP_H    = 0 ; max_DCP_H    = 4  ; % (1,0,5)  human task collapsed planning table
weight_DEP_H    = 2 ; min_DEP_H    = 0 ; max_DEP_H    = 2  ; % (2,0,5)  human task expanded planning table
weight_CAS_DAC  = 1 ; min_CAS_DAC  = 1 ; max_CAS_DAC  = 7  ; % (1,0,15) auto complete
weight_CAS_DC   = 0 ; min_CAS_DC   = 0 ; max_CAS_DC   = 8 ; % (0,0,10) collapsed
weight_CAS_DE   = 1 ; min_CAS_DE   = 0 ; max_CAS_DE   = 8  ; % (1,0,15) expanded
weight_CAS_DMA  = 1 ; min_CAS_DMA  = 1 ; max_CAS_DMA  = 5  ; % (1,0,5)  manual activation
weight_CAS_DRN  = 1 ; min_CAS_DRN  = 0 ; max_CAS_DRN  = 6  ; % (1,0,20) repetition
weight_CAS_DR   = 1 ; min_CAS_DR   = 1 ; max_CAS_DR   = 5  ; % (1,0,25) required
weight_SE2OC    = 1 ; min_SE2OC    = 2 ; max_SE2OC    = 10 ; % (1,0,50) entry criterion with associated connector
weight_SE       = 2 ; min_SE       = 0 ; max_SE       = 6  ; % (2,0,5)  entry criterion without a connector
weight_SX2OC    = 1 ; min_SX2OC    = 0 ; max_SX2OC    = 4  ; % (1,0,10) exit criterion with associated connector
weight_SX       = 3 ; min_SX       = 1 ; max_SX       = 5  ; % (3,0,5)  exit criterion without a connector
weight_CAS_MH   = 1 ; min_CAS_MH   = 1 ; max_CAS_MH   = 11 ; % (1,0,20) non-blocking human marker
weight_CAS_MP   = 0 ; min_CAS_MP   = 0 ; max_CAS_MP   = 7  ; % (0,0,10) process marker
weight_MC_O     = 0 ; min_MC_O     = 0 ; max_MC_O     = 4  ; % (0,0,5)  case marker (case not in this model)
weight_MC_I     = 1 ; min_MC_I     = 0 ; max_MC_I     = 2  ; % (1,0,1)  case marker (with  case  in this model)
weight_PT2MHB_PDT2MHB  = 0 ; min_PT2MHB_PDT2MHB  = 2 ; max_PT2MHB_PDT2MHB  = 12 ; % (0,0,25) blocking human marker
weight_OC       = 0 ; min_OC       = 0 ; max_OC       = 6  ; % (0,0,10) extra connector (sentry) element
